Begin Projections
As : sp3
End Projections

num_wann = 24
